(set-option :produce-models true); benchmark generated from python API
(set-info :status unknown)
(declare-fun l_1_0_8 () Real)
(declare-fun l_1_0_7 () Real)
(declare-fun l_1_0_6 () Real)
(declare-fun l_1_0_5 () Real)
(declare-fun l_1_0_4 () Real)
(declare-fun l_1_0_3 () Real)
(declare-fun l_1_0_2 () Real)
(declare-fun l_1_0_11 () Real)
(declare-fun l_1_0_10 () Real)
(declare-fun l_1_0_1 () Real)
(declare-fun _a_0_ () Real)
(declare-fun l_1_0_9 () Real)
(declare-fun _a_1_ () Real)
(declare-fun l_1_0_14 () Real)
(declare-fun l_1_0_13 () Real)
(declare-fun l_1_0_12 () Real)
(declare-fun _a_2_ () Real)
(declare-fun _a_3_ () Real)
(declare-fun l_1_1_9 () Real)
(declare-fun l_1_1_7 () Real)
(declare-fun l_1_1_6 () Real)
(declare-fun l_1_1_4 () Real)
(declare-fun l_1_1_3 () Real)
(declare-fun l_1_1_17 () Real)
(declare-fun l_1_1_16 () Real)
(declare-fun l_1_1_14 () Real)
(declare-fun l_1_1_13 () Real)
(declare-fun l_1_1_11 () Real)
(declare-fun l_1_1_10 () Real)
(declare-fun l_1_1_8 () Real)
(declare-fun l_1_1_5 () Real)
(declare-fun l_1_1_2 () Real)
(declare-fun l_1_1_12 () Real)
(declare-fun l_1_1_1 () Real)
(declare-fun l_1_1_15 () Real)
(declare-fun l_1_1_20 () Real)
(declare-fun l_1_1_19 () Real)
(declare-fun l_1_1_18 () Real)
(declare-fun l_1_2_7 () Real)
(declare-fun l_1_2_5 () Real)
(declare-fun l_1_2_4 () Real)
(declare-fun l_1_2_3 () Real)
(declare-fun l_1_2_17 () Real)
(declare-fun l_1_2_16 () Real)
(declare-fun l_1_2_14 () Real)
(declare-fun l_1_2_13 () Real)
(declare-fun l_1_2_12 () Real)
(declare-fun l_1_2_10 () Real)
(declare-fun l_1_2_1 () Real)
(declare-fun l_1_2_9 () Real)
(declare-fun l_1_2_8 () Real)
(declare-fun l_1_2_6 () Real)
(declare-fun l_1_2_2 () Real)
(declare-fun l_1_2_11 () Real)
(declare-fun l_1_2_18 () Real)
(declare-fun l_1_2_15 () Real)
(declare-fun l_1_2_20 () Real)
(declare-fun l_1_2_19 () Real)
(assert
 (let ((?x1275 (* 2.0 l_1_0_5)))
 (let ((?x1276 (* 4.0 l_1_0_4)))
 (let ((?x1277 (* 2.0 l_1_0_3)))
 (let ((?x1278 (* 2.0 l_1_0_2)))
 (let ((?x1279 (* l_1_0_11 l_1_0_11)))
 (let ((?x47 (- (- (- (- (- _a_0_ l_1_0_1) (* l_1_0_10 l_1_0_10)) ?x1279) ?x1278) ?x1277)))
 (= (- (- (- (- (- ?x47 ?x1276) ?x1275) l_1_0_6) l_1_0_7) l_1_0_8) 0.0))))))))
(assert
 (= (- _a_1_ (* (* 2.0 l_1_0_10) l_1_0_9)) 0.0))
(assert
 (let ((?x1276 (* 4.0 l_1_0_4)))
 (let ((?x1152 (* l_1_0_14 l_1_0_14)))
 (let ((?x1153 (- (- (- _a_2_ (* l_1_0_12 l_1_0_12)) (* l_1_0_13 l_1_0_13)) ?x1152)))
 (= (+ (+ (+ (+ ?x1153 l_1_0_2) l_1_0_3) ?x1276) l_1_0_5) 0.0)))))
(assert
 (let ((?x953 (* l_1_0_9 l_1_0_9)))
 (let ((?x1113 (+ (+ (+ (+ _a_3_ l_1_0_2) l_1_0_3) (* 4.0 l_1_0_4)) l_1_0_5)))
 (= (- ?x1113 ?x953) 0.0))))
(assert
 (= (- l_1_0_4) 0.0))
(assert
 (= (* (- 2.0) l_1_0_4) 0.0))
(assert
 (= (- l_1_0_4) 0.0))
(assert
 (= (* (* (- 2.0) l_1_0_12) l_1_0_9) 0.0))
(assert
 (let ((?x994 (- (* (* (- 2.0) l_1_0_10) l_1_0_12) (* (* 2.0 l_1_0_11) l_1_0_13))))
 (= ?x994 0.0)))
(assert
 (>= l_1_0_1 0.0))
(assert
 (>= l_1_0_2 0.0))
(assert
 (>= l_1_0_3 0.0))
(assert
 (>= l_1_0_4 0.0))
(assert
 (>= l_1_0_5 0.0))
(assert
 (>= l_1_0_6 0.0))
(assert
 (>= l_1_0_7 0.0))
(assert
 (>= l_1_0_8 0.0))
(assert
 (>= l_1_0_9 0.0))
(assert
 (>= l_1_0_11 0.0))
(assert
 (>= l_1_0_14 0.0))
(assert
 (let ((?x900 (* 9.0 l_1_1_3)))
 (let ((?x897 (* l_1_1_17 l_1_1_17)))
 (let ((?x895 (* l_1_1_16 l_1_1_16)))
 (let ((?x957 (* 3.0 l_1_1_11)))
 (let ((?x952 (* _a_0_ l_1_1_8)))
 (let ((?x949 (* _a_0_ l_1_1_5)))
 (let ((?x975 (+ (+ (* (- _a_0_) l_1_1_1) (* (* 3.0 _a_0_) l_1_1_12)) (* (* 3.0 _a_0_) l_1_1_2))))
 (let ((?x431 (- (- (+ (- (- (- ?x975 ?x949) ?x952) l_1_1_10) ?x957) l_1_1_13) l_1_1_14)))
 (let ((?x904 (- (- (- (- ?x431 ?x895) ?x897) ?x900) (* (* l_1_1_4 _a_0_) _a_0_))))
 (let ((?x838 (+ (+ (+ (- ?x904 l_1_1_6) (* 3.0 l_1_1_7)) (* 3.0 l_1_1_9)) (/ 121.0 100.0))))
 (= ?x838 0.0))))))))))))
(assert
 (let ((?x360 (* _a_1_ l_1_1_8)))
 (let ((?x353 (* _a_1_ l_1_1_5)))
 (let ((?x758 (* _a_1_ l_1_1_1)))
 (let ((?x761 (+ (- (* (* (* (- 2.0) _a_0_) _a_1_) l_1_1_4) ?x758) (* (* 3.0 _a_1_) l_1_1_12))))
 (let ((?x738 (- (- (- (+ ?x761 (* (* 3.0 _a_1_) l_1_1_2)) ?x353) ?x360) (* (* 2.0 l_1_1_15) l_1_1_16))))
 (= (+ ?x738 1.0) 0.0)))))))
(assert
 (let ((?x602 (* 6.0 l_1_1_3)))
 (let ((?x598 (* l_1_1_20 l_1_1_20)))
 (let ((?x644 (* l_1_1_19 l_1_1_19)))
 (let ((?x575 (* l_1_1_18 l_1_1_18)))
 (let ((?x671 (* _a_2_ l_1_1_8)))
 (let ((?x669 (* _a_2_ l_1_1_5)))
 (let ((?x667 (* _a_2_ l_1_1_1)))
 (let ((?x672 (- (- (- (* (* (* (- 2.0) _a_0_) _a_2_) l_1_1_4) ?x667) ?x669) ?x671)))
 (let ((?x576 (- (- (- ?x672 l_1_1_11) (* l_1_1_12 (- _a_0_ (* 3.0 _a_2_)))) ?x575)))
 (let ((?x599 (- (- (- ?x576 ?x644) (* l_1_1_2 (- _a_0_ (* 3.0 _a_2_)))) ?x598)))
 (= (- (- (- (+ ?x599 ?x602) l_1_1_7) l_1_1_9) (/ 1.0 5.0)) 0.0))))))))))))
(assert
 (let ((?x602 (* 6.0 l_1_1_3)))
 (let ((?x286 (* l_1_1_15 l_1_1_15)))
 (let ((?x325 (* _a_3_ l_1_1_8)))
 (let ((?x327 (- (- (- (* (- _a_3_) l_1_1_1) (* _a_3_ l_1_1_5)) ?x325) l_1_1_11)))
 (let ((?x291 (- (- (- ?x327 (* l_1_1_12 (- _a_0_ (* 3.0 _a_3_)))) ?x286) (* l_1_1_2 (- _a_0_ (* 3.0 _a_3_))))))
 (let ((?x20 (- (+ ?x291 ?x602) (* l_1_1_4 (+ (* (* 2.0 _a_0_) _a_3_) (* _a_1_ _a_1_))))))
 (= (- (- ?x20 l_1_1_7) l_1_1_9) 0.0))))))))
(assert
 (let ((?x478 (* _a_1_ l_1_1_2)))
 (let ((?x22 (* _a_1_ l_1_1_12)))
 (= (- (- (* (* (* (- 2.0) _a_1_) _a_2_) l_1_1_4) ?x22) ?x478) 0.0))))
(assert
 (let ((?x66 (- (- (- (* (- _a_2_) l_1_1_12) (* _a_2_ l_1_1_2)) l_1_1_3) (* (* l_1_1_4 _a_2_) _a_2_))))
 (= ?x66 0.0)))
(assert
 (let ((?x516 (* 2.0 l_1_1_3)))
 (let ((?x492 (- (* (* (* (- 2.0) _a_2_) _a_3_) l_1_1_4) (* l_1_1_12 (+ _a_2_ _a_3_)))))
 (= (- (- ?x492 (* l_1_1_2 (+ _a_2_ _a_3_))) ?x516) 0.0))))
(assert
 (let ((?x478 (* _a_1_ l_1_1_2)))
 (let ((?x22 (* _a_1_ l_1_1_12)))
 (= (- (- (* (* (* (- 2.0) _a_1_) _a_3_) l_1_1_4) ?x22) ?x478) 0.0))))
(assert
 (let ((?x89 (- (- (- (* (- _a_3_) l_1_1_12) (* _a_3_ l_1_1_2)) l_1_1_3) (* (* l_1_1_4 _a_3_) _a_3_))))
 (= ?x89 0.0)))
(assert
 (= (* (* (- 2.0) l_1_1_15) l_1_1_18) 0.0))
(assert
 (let ((?x560 (- (* (* (- 2.0) l_1_1_16) l_1_1_18) (* (* 2.0 l_1_1_17) l_1_1_19))))
 (= ?x560 0.0)))
(assert
 (>= l_1_1_1 0.0))
(assert
 (>= l_1_1_2 0.0))
(assert
 (>= l_1_1_3 0.0))
(assert
 (>= l_1_1_4 0.0))
(assert
 (>= l_1_1_5 0.0))
(assert
 (>= l_1_1_6 0.0))
(assert
 (>= l_1_1_7 0.0))
(assert
 (>= l_1_1_8 0.0))
(assert
 (>= l_1_1_9 0.0))
(assert
 (>= l_1_1_10 0.0))
(assert
 (>= l_1_1_11 0.0))
(assert
 (>= l_1_1_12 0.0))
(assert
 (>= l_1_1_13 0.0))
(assert
 (>= l_1_1_14 0.0))
(assert
 (>= l_1_1_15 0.0))
(assert
 (>= l_1_1_17 0.0))
(assert
 (>= l_1_1_20 0.0))
(assert
 (let ((?x1131 (* 3.0 l_1_2_7)))
 (let ((?x1130 (* 3.0 l_1_2_5)))
 (let ((?x750 (* l_1_2_17 l_1_2_17)))
 (let ((?x747 (* l_1_2_16 l_1_2_16)))
 (let ((?x743 (* 3.0 l_1_2_12)))
 (let ((?x870 (* 9.0 l_1_2_1)))
 (let ((?x817 (* _a_0_ l_1_2_9)))
 (let ((?x813 (* _a_0_ l_1_2_6)))
 (let ((?x814 (- (- (* (- _a_0_) l_1_2_11) (* (* 3.0 _a_0_) l_1_2_2)) ?x813)))
 (let ((?x867 (+ (+ (- (- ?x814 (* (* 3.0 _a_0_) l_1_2_8)) ?x817) _a_0_) (* 1.0 _a_1_))))
 (let ((?x742 (- (- (+ (+ ?x867 (* 1.0 _a_2_)) (* 1.0 _a_3_)) ?x870) l_1_2_10)))
 (let ((?x117 (- (- (- (- (- (- ?x742 ?x743) l_1_2_13) l_1_2_14) ?x747) ?x750) l_1_2_3)))
 (= (- (- (- ?x117 (* (* l_1_2_4 _a_0_) _a_0_)) ?x1130) ?x1131) 0.0))))))))))))))
(assert
 (let ((?x1214 (* 4.0 _a_3_)))
 (let ((?x1213 (* 2.0 _a_1_)))
 (let ((?x1216 (+ ?x1213 ?x1214)))
 (= (- ?x1216 (* (* 2.0 l_1_2_15) l_1_2_18)) 0.0)))))
(assert
 (let ((?x702 (* l_1_2_15 l_1_2_15)))
 (let ((?x1097 (* 6.0 l_1_2_1)))
 (let ((?x1095 (* 2.0 _a_3_)))
 (let ((?x1099 (* _a_3_ l_1_2_9)))
 (let ((?x1089 (* _a_3_ l_1_2_6)))
 (let ((?x1096 (+ (- (- (- (+ _a_1_ _a_2_) (* _a_3_ l_1_2_11)) ?x1089) ?x1099) ?x1095)))
 (let ((?x1200 (- (- (+ (+ ?x1096 ?x1097) l_1_2_12) ?x702) (* l_1_2_2 (+ (- _a_0_) (* 3.0 _a_3_))))))
 (let ((?x1196 (- ?x1200 (* l_1_2_4 (+ (* (* 2.0 _a_0_) _a_3_) (* _a_1_ _a_1_))))))
 (let ((?x553 (- (+ (+ ?x1196 l_1_2_5) l_1_2_7) (* l_1_2_8 (+ (- _a_0_) (* 3.0 _a_3_))))))
 (= ?x553 0.0)))))))))))
(assert
 (let ((?x889 (- (+ (+ (* _a_2_ l_1_2_2) (* _a_2_ l_1_2_8)) _a_2_) l_1_2_1)))
 (= (- ?x889 (* (* l_1_2_4 _a_2_) _a_2_)) 0.0)))
(assert
 (let ((?x416 (* 2.0 _a_2_)))
 (let ((?x1086 (* _a_1_ l_1_2_8)))
 (let ((?x1091 (* _a_1_ l_1_2_2)))
 (let ((?x418 (+ (+ (+ (* (* (* (- 2.0) _a_1_) _a_2_) l_1_2_4) ?x1091) ?x1086) ?x416)))
 (= ?x418 0.0))))))
(assert
 (let ((?x925 (* l_1_2_20 l_1_2_20)))
 (let ((?x881 (* l_1_2_19 l_1_2_19)))
 (let ((?x546 (* l_1_2_18 l_1_2_18)))
 (let ((?x1097 (* 6.0 l_1_2_1)))
 (let ((?x416 (* 2.0 _a_2_)))
 (let ((?x1080 (* _a_2_ l_1_2_9)))
 (let ((?x1123 (* _a_2_ l_1_2_6)))
 (let ((?x1119 (* _a_2_ l_1_2_11)))
 (let ((?x1081 (- (- (- (* (* (* (- 2.0) _a_0_) _a_2_) l_1_2_4) ?x1119) ?x1123) ?x1080)))
 (let ((?x919 (- (- (- (+ (+ (- ?x1081 ?x416) ?x1097) l_1_2_12) ?x546) ?x881) (* l_1_2_2 (+ (- _a_0_) (* 3.0 _a_2_))))))
 (let ((?x1045 (- (+ (+ (- ?x919 ?x925) l_1_2_5) l_1_2_7) (* l_1_2_8 (+ (- _a_0_) (* 3.0 _a_2_))))))
 (= ?x1045 0.0)))))))))))))
(assert
 (let ((?x416 (* 2.0 _a_2_)))
 (let ((?x921 (* _a_1_ l_1_2_9)))
 (let ((?x118 (* _a_1_ l_1_2_6)))
 (let ((?x660 (* _a_1_ l_1_2_11)))
 (let ((?x581 (- (- (* (* (* (- 2.0) _a_0_) _a_1_) l_1_2_4) ?x660) (* (* 3.0 _a_1_) l_1_2_2))))
 (let ((?x1055 (- (- (- (- ?x581 ?x118) (* (* 3.0 _a_1_) l_1_2_8)) ?x921) ?x416)))
 (= (- ?x1055 (* (* 2.0 l_1_2_15) l_1_2_16)) 0.0))))))))
(assert
 (let ((?x409 (* 2.0 l_1_2_1)))
 (let ((?x959 (- (+ (* (* (* (- 2.0) _a_2_) _a_3_) l_1_2_4) (* 4.0 _a_3_)) ?x409)))
 (let ((?x964 (- (- ?x959 (* l_1_2_2 (- (- _a_2_) _a_3_))) (* l_1_2_8 (- (- _a_2_) _a_3_)))))
 (= ?x964 0.0)))))
(assert
 (let ((?x1214 (* 4.0 _a_3_)))
 (= ?x1214 0.0)))
(assert
 (let ((?x230 (- (+ (+ (* _a_3_ l_1_2_2) (* _a_3_ l_1_2_8)) _a_3_) l_1_2_1)))
 (= (- ?x230 (* (* l_1_2_4 _a_3_) _a_3_)) 0.0)))
(assert
 (let ((?x1086 (* _a_1_ l_1_2_8)))
 (let ((?x1091 (* _a_1_ l_1_2_2)))
 (= (+ (+ (* (* (* (- 2.0) _a_1_) _a_3_) l_1_2_4) ?x1091) ?x1086) 0.0))))
(assert
 (let ((?x912 (- (* (* (- 2.0) l_1_2_16) l_1_2_18) (* (* 2.0 l_1_2_17) l_1_2_19))))
 (= ?x912 0.0)))
(assert
 (>= l_1_2_1 0.0))
(assert
 (>= l_1_2_2 0.0))
(assert
 (>= l_1_2_3 0.0))
(assert
 (>= l_1_2_4 0.0))
(assert
 (>= l_1_2_5 0.0))
(assert
 (>= l_1_2_6 0.0))
(assert
 (>= l_1_2_7 0.0))
(assert
 (>= l_1_2_8 0.0))
(assert
 (>= l_1_2_9 0.0))
(assert
 (>= l_1_2_10 0.0))
(assert
 (>= l_1_2_11 0.0))
(assert
 (>= l_1_2_12 0.0))
(assert
 (>= l_1_2_13 0.0))
(assert
 (>= l_1_2_14 0.0))
(assert
 (>= l_1_2_15 0.0))
(assert
 (>= l_1_2_17 0.0))
(assert
 (>= l_1_2_20 0.0))
(check-sat)
(get-model)